proyfinal/src/viki/013/experimentInOfficeAgust.take6.output/21b3aea8-0f5e-4413-8757-d317c9fa8496.als.dat
{'cnf.clauses': '161767',
 'cnf.totvars': '87638',
 'conflict literals': '658188',
 'conflicts': '8773',
 'decisions': '29782',
 'memused.mb': '23.20',
 'outcome': 'UNSAT',
 'propagations': '14744510',
 'restarts': '37',
 'solver.msecs': 1375,
 'stats_inv': {'cnf.clauses': '118081',
               'cnf.totvars': '69608',
               'conflict literals': '40',
               'conflicts': '18',
               'decisions': '35041',
               'memused.mb': '16.88',
               'outcome': 'SAT',
               'propagations': '80857',
               'restarts': '1',
               'solver.msecs': 37,
               'task.output': "Reading from standard input... Use '--help' for "
                              'help.\n'
                              '============================[ Problem '
                              'Statistics ]=============================\n'
                              '|                                                                             '
                              '|\n'
                              '|  Number of variables:         '
                              '69608                                         '
                              '|\n'
                              '|  Number of clauses:          '
                              '118081                                         '
                              '|\n'
                              '|  Parse time:                   0.03 '
                              's                                       |\n'
                              '|                                                                             '
                              '|\n'
                              '============================[ Search Statistics '
                              ']==============================\n'
                              '| Conflicts |          ORIGINAL         '
                              '|          LEARNT          | Progress |\n'
                              '|           |    Vars  Clauses Literals |    '
                              'Limit  Clauses Lit/Cl |          |\n'
                              '===============================================================================\n'
                              '===============================================================================\n'
                              'restarts              : 1\n'
                              'conflicts             : 18             (479 '
                              '/sec)\n'
                              'decisions             : 35041          (0.00 % '
                              'random) (931818 /sec)\n'
                              'propagations          : 80857          (2150166 '
                              '/sec)\n'
                              'conflict literals     : 40             (21.57 % '
                              'deleted)\n'
                              'Memory used           : 16.88 MB\n'
                              'CPU time              : 0.037605 s\n'
                              '\n'
                              'SATISFIABLE\n'},
 'task.msecs': 2019}
