proyfinal/src/viki/013/andrea/andrea-localstore/experimentInOfficeAgust.take6/worker_11/21b3aea8-0f5e-4413-8757-d317c9fa8496.als.cnf.out
Reading from standard input... Use '--help' for help.
============================[ Problem Statistics ]=============================
|                                                                             |
|  Number of variables:         87638                                         |
|  Number of clauses:          161767                                         |
|  Parse time:                   0.03 s                                       |
|                                                                             |
============================[ Search Statistics ]==============================
| Conflicts |          ORIGINAL         |          LEARNT          | Progress |
|           |    Vars  Clauses Literals |    Limit  Clauses Lit/Cl |          |
===============================================================================
|       100 |   62272   104835   261912 |    38439      100     15 | 28.944 % |
|       250 |   62272   104835   261912 |    42283      250     14 | 28.944 % |
|       475 |   62272   104835   261912 |    46511      475     29 | 28.944 % |
|       812 |   62252   104715   261646 |    51162      635     57 | 28.967 % |
|      1318 |   62252   104715   261646 |    56279     1141     87 | 28.967 % |
|      2077 |   62252   104715   261646 |    61907     1900     80 | 28.967 % |
|      3216 |   62211   104639   261470 |    68097     2611     73 | 29.014 % |
|      4924 |   62191   104469   261076 |    74907     3927     81 | 29.036 % |
|      7486 |   62191   104469   261076 |    82398     6489     79 | 29.036 % |
===============================================================================
restarts              : 37
conflicts             : 8773           (6376 /sec)
decisions             : 29782          (0.00 % random) (21645 /sec)
propagations          : 14744510       (10716188 /sec)
conflict literals     : 658188         (56.99 % deleted)
Memory used           : 23.20 MB
CPU time              : 1.37591 s

UNSATISFIABLE
